77
alkane n=25
C     0.00000000     0.00000000     0.00000000
C     1.27030039     0.84558437     0.00000000
C     2.54060077     0.00000000     0.00000000
C     3.81090116     0.84558437     0.00000000
C     5.08120154     0.00000000     0.00000000
C     6.35150193     0.84558437     0.00000000
C     7.62180231     0.00000000     0.00000000
C     8.89210270     0.84558437     0.00000000
C    10.16240308     0.00000000     0.00000000
C    11.43270347     0.84558437     0.00000000
C    12.70300386     0.00000000     0.00000000
C    13.97330424     0.84558437     0.00000000
C    15.24360463     0.00000000     0.00000000
C    16.51390501     0.84558437     0.00000000
C    17.78420540     0.00000000     0.00000000
C    19.05450578     0.84558437     0.00000000
C    20.32480617     0.00000000     0.00000000
C    21.59510655     0.84558437     0.00000000
C    22.86540694     0.00000000     0.00000000
C    24.13570733     0.84558437     0.00000000
C    25.40600771     0.00000000     0.00000000
C    26.67630810     0.84558437     0.00000000
C    27.94660848     0.00000000     0.00000000
C    29.21690887     0.84558437     0.00000000
C    30.48720925     0.00000000     0.00000000
H     0.26701618    -1.05678870     0.00000000
H    -0.58715946     0.22641813    -0.88998798
H    -0.58715946     0.22641813     0.88998798
H     1.27030039     1.49394121     0.87620398
H     1.27030039     1.49394121    -0.87620398
H     2.54060077    -0.64835684    -0.87620398
H     2.54060077    -0.64835684     0.87620398
H     3.81090116     1.49394121     0.87620398
H     3.81090116     1.49394121    -0.87620398
H     5.08120154    -0.64835684    -0.87620398
H     5.08120154    -0.64835684     0.87620398
H     6.35150193     1.49394121     0.87620398
H     6.35150193     1.49394121    -0.87620398
H     7.62180231    -0.64835684    -0.87620398
H     7.62180231    -0.64835684     0.87620398
H     8.89210270     1.49394121     0.87620398
H     8.89210270     1.49394121    -0.87620398
H    10.16240308    -0.64835684    -0.87620398
H    10.16240308    -0.64835684     0.87620398
H    11.43270347     1.49394121     0.87620398
H    11.43270347     1.49394121    -0.87620398
H    12.70300386    -0.64835684    -0.87620398
H    12.70300386    -0.64835684     0.87620398
H    13.97330424     1.49394121     0.87620398
H    13.97330424     1.49394121    -0.87620398
H    15.24360463    -0.64835684    -0.87620398
H    15.24360463    -0.64835684     0.87620398
H    16.51390501     1.49394121     0.87620398
H    16.51390501     1.49394121    -0.87620398
H    17.78420540    -0.64835684    -0.87620398
H    17.78420540    -0.64835684     0.87620398
H    19.05450578     1.49394121     0.87620398
H    19.05450578     1.49394121    -0.87620398
H    20.32480617    -0.64835684    -0.87620398
H    20.32480617    -0.64835684     0.87620398
H    21.59510655     1.49394121     0.87620398
H    21.59510655     1.49394121    -0.87620398
H    22.86540694    -0.64835684    -0.87620398
H    22.86540694    -0.64835684     0.87620398
H    24.13570733     1.49394121     0.87620398
H    24.13570733     1.49394121    -0.87620398
H    25.40600771    -0.64835684    -0.87620398
H    25.40600771    -0.64835684     0.87620398
H    26.67630810     1.49394121     0.87620398
H    26.67630810     1.49394121    -0.87620398
H    27.94660848    -0.64835684    -0.87620398
H    27.94660848    -0.64835684     0.87620398
H    29.21690887     1.49394121     0.87620398
H    29.21690887     1.49394121    -0.87620398
H    31.35909393     0.65415374     0.00000000
H    30.50491829    -0.62905309    -0.88998798
H    30.50491829    -0.62905309     0.88998798
