90
water n=30
O     0.00000000     0.00000000     0.00000000
H     0.58588228     0.75695033     0.00000000
H     0.58588228    -0.75695033     0.00000000
O     3.20000000     0.00000000     0.00000000
H     2.44304967     0.58588228     0.00000000
H     3.95695033     0.58588228     0.00000000
O     6.40000000     0.00000000     0.00000000
H     5.81411772    -0.75695033     0.00000000
H     5.81411772     0.75695033     0.00000000
O     9.60000000     0.00000000     0.00000000
H    10.35695033    -0.58588228     0.00000000
H     8.84304967    -0.58588228     0.00000000
O     0.00000000     3.20000000     0.00000000
H     0.58588228     3.95695033     0.00000000
H     0.58588228     2.44304967     0.00000000
O     3.20000000     3.20000000     0.00000000
H     2.44304967     3.78588228     0.00000000
H     3.95695033     3.78588228     0.00000000
O     6.40000000     3.20000000     0.00000000
H     5.81411772     2.44304967     0.00000000
H     5.81411772     3.95695033     0.00000000
O     9.60000000     3.20000000     0.00000000
H    10.35695033     2.61411772     0.00000000
H     8.84304967     2.61411772     0.00000000
O     0.00000000     6.40000000     0.00000000
H     0.58588228     7.15695033     0.00000000
H     0.58588228     5.64304967     0.00000000
O     3.20000000     6.40000000     0.00000000
H     2.44304967     6.98588228     0.00000000
H     3.95695033     6.98588228     0.00000000
O     6.40000000     6.40000000     0.00000000
H     5.81411772     5.64304967     0.00000000
H     5.81411772     7.15695033     0.00000000
O     9.60000000     6.40000000     0.00000000
H    10.35695033     5.81411772     0.00000000
H     8.84304967     5.81411772     0.00000000
O     0.00000000     9.60000000     0.00000000
H     0.58588228    10.35695033     0.00000000
H     0.58588228     8.84304967     0.00000000
O     3.20000000     9.60000000     0.00000000
H     2.44304967    10.18588228     0.00000000
H     3.95695033    10.18588228     0.00000000
O     6.40000000     9.60000000     0.00000000
H     5.81411772     8.84304967     0.00000000
H     5.81411772    10.35695033     0.00000000
O     9.60000000     9.60000000     0.00000000
H    10.35695033     9.01411772     0.00000000
H     8.84304967     9.01411772     0.00000000
O     0.00000000     0.00000000     3.20000000
H     0.58588228     0.75695033     3.20000000
H     0.58588228    -0.75695033     3.20000000
O     3.20000000     0.00000000     3.20000000
H     2.44304967     0.58588228     3.20000000
H     3.95695033     0.58588228     3.20000000
O     6.40000000     0.00000000     3.20000000
H     5.81411772    -0.75695033     3.20000000
H     5.81411772     0.75695033     3.20000000
O     9.60000000     0.00000000     3.20000000
H    10.35695033    -0.58588228     3.20000000
H     8.84304967    -0.58588228     3.20000000
O     0.00000000     3.20000000     3.20000000
H     0.58588228     3.95695033     3.20000000
H     0.58588228     2.44304967     3.20000000
O     3.20000000     3.20000000     3.20000000
H     2.44304967     3.78588228     3.20000000
H     3.95695033     3.78588228     3.20000000
O     6.40000000     3.20000000     3.20000000
H     5.81411772     2.44304967     3.20000000
H     5.81411772     3.95695033     3.20000000
O     9.60000000     3.20000000     3.20000000
H    10.35695033     2.61411772     3.20000000
H     8.84304967     2.61411772     3.20000000
O     0.00000000     6.40000000     3.20000000
H     0.58588228     7.15695033     3.20000000
H     0.58588228     5.64304967     3.20000000
O     3.20000000     6.40000000     3.20000000
H     2.44304967     6.98588228     3.20000000
H     3.95695033     6.98588228     3.20000000
O     6.40000000     6.40000000     3.20000000
H     5.81411772     5.64304967     3.20000000
H     5.81411772     7.15695033     3.20000000
O     9.60000000     6.40000000     3.20000000
H    10.35695033     5.81411772     3.20000000
H     8.84304967     5.81411772     3.20000000
O     0.00000000     9.60000000     3.20000000
H     0.58588228    10.35695033     3.20000000
H     0.58588228     8.84304967     3.20000000
O     3.20000000     9.60000000     3.20000000
H     2.44304967    10.18588228     3.20000000
H     3.95695033    10.18588228     3.20000000
